PROBLEM NAME: eil51_n10
KNAPSACK DATA TYPE: multiple strongly correlated
DIMENSION: 10
NUMBER OF ITEMS: 45
CAPACITY OF KNAPSACK: 20640
MIN SPEED: 0.1
MAX SPEED: 1
RENTING RATIO: 46.92
EDGE_WEIGHT_TYPE: CEIL_2D
NODE_COORD_SECTION	(INDEX, X, Y):
1	37	52
2	21	47
3	42	41
4	31	32
5	12	42
6	17	33
7	43	67
8	5	64
9	25	55
10	48	28
ITEMS SECTION	(INDEX, PROFIT, WEIGHT, ASSIGNED NODE NUMBER):
1	1254	954	7
2	1171	971	7
3	1125	925	7
4	1103	903	7
5	1098	898	7
6	1091	891	9
7	1087	887	9
8	1067	867	9
9	1032	832	9
10	1032	832	9
11	1008	808	2
12	1001	801	2
13	927	727	2
14	916	716	2
15	910	710	2
16	832	632	8
17	802	602	8
18	772	572	8
19	748	548	8
20	737	537	8
21	718	518	5
22	714	514	5
23	648	348	5
24	634	434	5
25	631	431	5
26	606	406	6
27	583	383	6
28	583	383	6
29	577	377	6
30	543	343	6
31	508	308	4
32	507	307	4
33	481	281	4
34	472	272	4
35	444	244	4
36	439	239	10
37	438	138	10
38	418	218	10
39	412	212	10
40	365	165	10
41	347	147	3
42	316	116	3
43	311	111	3
44	306	106	3
45	291	91	3
